(set-logic QF_NRA)
(set-info :source |Benchmarks generated from hycomp (https://es-static.fbk.eu/tools/hycomp/). BMC instances of non-linear hybrid automata taken from: Alessandro Cimatti, Sergio Mover, Stefano Tonetta, A quantifier-free SMT encoding of non-linear hybrid automata, FMCAD 2012 and Alessandro Cimatti, Sergio Mover, Stefano Tonetta, Quantier-free encoding of invariants for Hybrid Systems, Formal Methods in System Design. This instance solves a BMC problem of depth 0 and uses the encoding obtained with quantifier elimination using qepcad encoding. Contacts: Sergio Mover (mover@fbk.eu), Stefano Tonetta (tonettas@fbk.eu), Alessandro Cimatti (cimatti@fbk.eu).|)
(set-info :smt-lib-version 2.0)
(set-info :category "industrial")
(set-info :status unsat)
;; MathSAT API call trace
;; generated on Mon Mar 19 10:50:16 2012
(declare-fun b.counter.3__AT0 () Bool)
(declare-fun b.speed_y__AT0 () Real)
(declare-fun b.event_is_timed__AT0 () Bool)
(declare-fun b.time__AT0 () Real)
(declare-fun b.y__AT0 () Real)
(declare-fun b.counter.0__AT0 () Bool)
(declare-fun b.counter.1__AT0 () Bool)
(declare-fun g__AT0 () Real)
(declare-fun b.counter.2__AT0 () Bool)
(declare-fun b.delta__AT0 () Real)
(declare-fun b.EVENT.0__AT0 () Bool)
(declare-fun b.y__AT1 () Real)
(declare-fun b.EVENT.1__AT0 () Bool)
(declare-fun speed_loss__AT0 () Real)
(assert (let ((.def_104 (= b.y__AT0 b.y__AT1)))
(let ((.def_105 (not .def_104)))
(let ((.def_77 (* 2.0 b.delta__AT0)))
(let ((.def_78 (* b.speed_y__AT0 .def_77)))
(let ((.def_73 (* b.delta__AT0 b.delta__AT0)))
(let ((.def_74 (* g__AT0 .def_73)))
(let ((.def_76 (* (- 1.0) .def_74)))
(let ((.def_79 (+ .def_76 .def_78)))
(let ((.def_80 (* 2.0 b.y__AT0)))
(let ((.def_82 (+ .def_80 .def_79)))
(let ((.def_97 (<= .def_82 0.0 )))
(let ((.def_98 (not .def_97)))
(let ((.def_94 (* b.speed_y__AT0 b.speed_y__AT0)))
(let ((.def_93 (* g__AT0 .def_80)))
(let ((.def_95 (+ .def_93 .def_94)))
(let ((.def_96 (<= .def_95 0.0 )))
(let ((.def_99 (and .def_96 .def_98)))
(let ((.def_44 (not b.EVENT.0__AT0)))
(let ((.def_42 (not b.EVENT.1__AT0)))
(let ((.def_66 (and .def_42 .def_44)))
(let ((.def_100 (and .def_66 .def_99)))
(let ((.def_87 (* b.speed_y__AT0 b.delta__AT0)))
(let ((.def_88 (+ .def_80 .def_87)))
(let ((.def_89 (<= 0.0 .def_88)))
(let ((.def_71 (<= 0.0 b.speed_y__AT0)))
(let ((.def_86 (not .def_71)))
(let ((.def_90 (and .def_86 .def_89)))
(let ((.def_83 (<= 0.0 .def_82)))
(let ((.def_91 (and .def_83 .def_90)))
(let ((.def_61 (<= 0.0 b.y__AT0)))
(let ((.def_72 (and .def_61 .def_71)))
(let ((.def_84 (and .def_72 .def_83)))
(let ((.def_69 (<= 0.0 b.delta__AT0)))
(let ((.def_70 (not .def_69)))
(let ((.def_85 (or .def_70 .def_84)))
(let ((.def_92 (or .def_85 .def_91)))
(let ((.def_101 (or .def_92 .def_100)))
(let ((.def_102 (not .def_101)))
(let ((.def_106 (or .def_102 .def_105)))
(let ((.def_67 (not .def_66)))
(let ((.def_107 (or .def_67 .def_106)))
(let ((.def_58 (<= speed_loss__AT0 (/ 1 2))))
(let ((.def_55 (<= (/ 1 10) speed_loss__AT0)))
(let ((.def_59 (and .def_55 .def_58)))
(let ((.def_50 (<= g__AT0 10.0 )))
(let ((.def_49 (<= 8.0 g__AT0)))
(let ((.def_51 (and .def_49 .def_50)))
(let ((.def_60 (and .def_51 .def_59)))
(let ((.def_62 (and .def_60 .def_61)))
(let ((.def_45 (or .def_42 .def_44)))
(let ((.def_9 (not b.counter.0__AT0)))
(let ((.def_6 (not b.counter.1__AT0)))
(let ((.def_35 (or .def_6 .def_9)))
(let ((.def_39 (or b.counter.3__AT0 .def_35)))
(let ((.def_36 (or b.counter.2__AT0 .def_35)))
(let ((.def_4 (not b.counter.2__AT0)))
(let ((.def_34 (or .def_4 .def_9)))
(let ((.def_37 (and .def_34 .def_36)))
(let ((.def_14 (not b.counter.3__AT0)))
(let ((.def_38 (or .def_14 .def_37)))
(let ((.def_40 (and .def_38 .def_39)))
(let ((.def_46 (and .def_40 .def_45)))
(let ((.def_63 (and .def_46 .def_62)))
(let ((.def_10 (and .def_6 .def_9)))
(let ((.def_31 (and .def_4 .def_10)))
(let ((.def_32 (and .def_14 .def_31)))
(let ((.def_29 (= b.speed_y__AT0 0.0 )))
(let ((.def_26 (= b.y__AT0 10.0 )))
(let ((.def_21 (= b.time__AT0 0.0 )))
(let ((.def_23 (and .def_21 b.event_is_timed__AT0)))
(let ((.def_27 (and .def_23 .def_26)))
(let ((.def_30 (and .def_27 .def_29)))
(let ((.def_33 (and .def_30 .def_32)))
(let ((.def_64 (and .def_33 .def_63)))
(let ((.def_16 (or .def_10 b.counter.3__AT0)))
(let ((.def_11 (or b.counter.2__AT0 .def_10)))
(let ((.def_7 (or .def_4 .def_6)))
(let ((.def_12 (and .def_7 .def_11)))
(let ((.def_15 (or .def_12 .def_14)))
(let ((.def_17 (and .def_15 .def_16)))
(let ((.def_18 (not .def_17)))
(let ((.def_65 (and .def_18 .def_64)))
(let ((.def_108 (and .def_65 .def_107)))
.def_108))))))))))))))))))))))))))))))))))))))))))))))))))))))))))))))))))))))))))))))))))))
(check-sat)
(exit)
